
Gurobi 11.0.0 (linux64) logging started Thu Dec  5 15:44:01 2024

Set parameter LogFile to value "gurobi.log"
Set parameter InfUnbdInfo to value 1
Gurobi Optimizer version 11.0.0 build v11.0.0rc2 (linux64 - "Ubuntu 22.04.4 LTS")

CPU model: AMD EPYC 7V13 64-Core Processor, instruction set [SSE2|AVX|AVX2]
Thread count: 128 physical cores, 128 logical processors, using up to 32 threads

Optimize a model with 37 rows, 156 columns and 116 nonzeros
Model fingerprint: 0xe745dcf8
Model has 112 quadratic constraints
Model has 10 general constraints
Variable types: 37 continuous, 119 integer (0 binary)
Coefficient statistics:
  Matrix range     [1e+00, 2e+01]
  QMatrix range    [1e+00, 2e+02]
  QLMatrix range   [1e+00, 2e+02]
  Objective range  [1e+00, 1e+00]
  Bounds range     [1e+00, 2e+06]
  RHS range        [1e+00, 2e+06]
  QRHS range       [2e+02, 9e+03]
Using branch priorities (all 0).
Presolve added 99 rows and 60 columns
Presolve time: 0.01s
Presolved: 435 rows, 370 columns, 1247 nonzeros
Presolved model has 103 SOS constraint(s)
Presolved model has 31 bilinear constraint(s)
Warning: Model contains variables with very large bounds participating
         in product terms.
         Presolve was not able to compute smaller bounds for these variables.
         Consider bounding these variables or reformulating the model.


Solving non-convex MIQCP

Variable types: 95 continuous, 275 integer (121 binary)

Root relaxation: objective 5.825311e+01, 162 iterations, 0.00 seconds (0.00 work units)

    Nodes    |    Current Node    |     Objective Bounds      |     Work
 Expl Unexpl |  Obj  Depth IntInf | Incumbent    BestBd   Gap | It/Node Time

     0     0   58.25311    0   97          -   58.25311      -     -    0s
     0     0   58.25791    0  110          -   58.25791      -     -    0s
H    0     0                    65417.375000   58.25791   100%     -    0s
     0     0  123.92294    0  142 65417.3750  123.92294   100%     -    0s
H    0     0                    60292.375000  123.92294   100%     -    0s
     0     0  123.93033    0  142 60292.3750  123.93033   100%     -    0s
     0     0  186.66851    0  144 60292.3750  186.66851   100%     -    0s
     0     0  186.66851    0  144 60292.3750  186.66851   100%     -    0s
H    0     0                    58827.336456  186.66851   100%     -    0s
H    0     0                    58101.750000  186.66851   100%     -    0s
     0     0  186.66851    0  146 58101.7500  186.66851   100%     -    0s
     0     0  259.33567    0  150 58101.7500  259.33567   100%     -    0s
     0     0  259.33567    0  149 58101.7500  259.33567   100%     -    0s
H    0     0                    34560.448286  259.33567  99.2%     -    0s
     0     0  259.87297    0  149 34560.4483  259.87297  99.2%     -    0s
     0     0  472.85937    0  142 34560.4483  472.85937  98.6%     -    0s
     0     0  516.34743    0  141 34560.4483  516.34743  98.5%     -    0s
     0     0  938.99206    0  140 34560.4483  938.99206  97.3%     -    0s
     0     0 1262.58187    0  113 34560.4483 1262.58187  96.3%     -    0s
     0     0 2871.47130    0  113 34560.4483 2871.47130  91.7%     -    0s
H    0     0                    29109.172509 3084.55419  89.4%     -    0s
     0     0 3084.55419    0  113 29109.1725 3084.55419  89.4%     -    0s
     0     0 3564.59700    0  114 29109.1725 3564.59700  87.8%     -    0s
     0     0 4074.11806    0  114 29109.1725 4074.11806  86.0%     -    0s
     0     0 4266.18331    0  114 29109.1725 4266.18331  85.3%     -    0s
     0     0 4792.09591    0  114 29109.1725 4792.09591  83.5%     -    0s
H    0     0                    26372.365105 4792.09591  81.8%     -    0s
     0     0 5801.10632    0  114 26372.3651 5801.10632  78.0%     -    0s
     0     0 6306.77654    0  114 26372.3651 6306.77654  76.1%     -    0s
     0     0 7550.85017    0  114 26372.3651 7550.85017  71.4%     -    0s
     0     0 7920.90184    0  114 26372.3651 7920.90184  70.0%     -    0s
     0     0 9222.65242    0  146 26372.3651 9222.65242  65.0%     -    0s
     0     0 9814.65752    0  115 26372.3651 9814.65752  62.8%     -    0s
     0     0 9979.46030    0  115 26372.3651 9979.46030  62.2%     -    0s
     0     0 11900.4930    0  137 26372.3651 11900.4930  54.9%     -    0s
     0     0 13465.7809    0  121 26372.3651 13465.7809  48.9%     -    0s
H    0     0                    24672.302572 13863.5490  43.8%     -    0s
     0     0 13863.5490    0  132 24672.3026 13863.5490  43.8%     -    0s
     0     0 14637.7755    0  122 24672.3026 14637.7755  40.7%     -    0s
     0     0 15029.2179    0  122 24672.3026 15029.2179  39.1%     -    0s
     0     0 15415.9594    0  127 24672.3026 15415.9594  37.5%     -    0s
     0     0 15806.7763    0  124 24672.3026 15806.7763  35.9%     -    0s
     0     0 16580.3239    0  134 24672.3026 16580.3239  32.8%     -    0s
     0     0 17024.6759    0  127 24672.3026 17024.6759  31.0%     -    0s
     0     0 17024.6759    0   62 24672.3026 17024.6759  31.0%     -    0s
     0     0 17024.6759    0   75 24672.3026 17024.6759  31.0%     -    0s
     0     0 17024.6759    0   77 24672.3026 17024.6759  31.0%     -    0s
     0     0 17024.6759    0   73 24672.3026 17024.6759  31.0%     -    1s
     0     0 17024.6759    0   73 24672.3026 17024.6759  31.0%     -    1s
     0     0 17024.6759    0   75 24672.3026 17024.6759  31.0%     -    1s
     0     0 17024.6759    0   75 24672.3026 17024.6759  31.0%     -    1s
     0     0 17024.6759    0   89 24672.3026 17024.6759  31.0%     -    2s
     0     0 17024.6759    0   89 24672.3026 17024.6759  31.0%     -    2s
     0     0 17024.6759    0   85 24672.3026 17024.6759  31.0%     -    2s
     0     0 17024.6759    0   86 24672.3026 17024.6759  31.0%     -    2s
     0     0 17024.6759    0   88 24672.3026 17024.6759  31.0%     -    2s
H    0     0                    24672.301487 17024.6759  31.0%     -    2s
     0     0 17024.6759    0   85 24672.3015 17024.6759  31.0%     -    3s
     0     0 17024.6759    0   82 24672.3015 17024.6759  31.0%     -    3s
     0     0 17024.6759    0   83 24672.3015 17024.6759  31.0%     -    3s
     0     0 17024.6759    0   88 24672.3015 17024.6759  31.0%     -    3s
     0     0 17024.6759    0   93 24672.3015 17024.6759  31.0%     -    3s
     0     0 17024.6759    0   95 24672.3015 17024.6759  31.0%     -    3s
     0     0 17024.6759    0   89 24672.3015 17024.6759  31.0%     -    4s
     0     0 17024.6759    0   90 24672.3015 17024.6759  31.0%     -    4s
     0     0 17024.6759    0   91 24672.3015 17024.6759  31.0%     -    4s
     0     0 17024.6759    0   93 24672.3015 17024.6759  31.0%     -    4s
     0     0 17024.6759    0   84 24672.3015 17024.6759  31.0%     -    5s
     0     2 17024.6759    0   81 24672.3015 17024.6759  31.0%     -    5s

Cutting planes:
  Cover: 1
  Implied bound: 57
  MIR: 13
  Flow cover: 10
  Zero half: 1
  Network: 1
  RLT: 13
  Relax-and-lift: 42
  BQP: 2

Explored 500 nodes (8415 simplex iterations) in 5.96 seconds (0.28 work units)
Thread count was 32 (of 128 available processors)

Solution count 9: 24672.3 24672.3 26372.4 ... 65417.4

Optimal solution found (tolerance 1.00e-04)
Warning: max constraint violation (9.5551e-04) exceeds tolerance
Warning: max general constraint violation (9.5551e-04) exceeds tolerance
Best objective 2.467230148691e+04, best bound 2.467230148691e+04, gap 0.0000%
